c 1 NFa_1
c 2 NFa_2
c 3 NFa_3
c 4 NFb_1
c 5 NFb_2
c 6 NFb_3
c 7 NFc_1
c 8 NFc_2
c 9 NFc_3
c 10 NFd_1
c 11 NFd_2
c 12 NFd_3
c 13 NFe_1
c 14 NFe_2
c 15 NFe_3
c 16 NFf_1
c 17 NFf_2
c 18 NFf_3
c 19 Tseitin_Variable_1
c 20 Tseitin_Variable_2
c 21 Tseitin_Variable_3
c 22 Tseitin_Variable_4
c 23 Tseitin_Variable_5
c 24 Tseitin_Variable_6
c 25 Tseitin_Variable_7
c 26 Tseitin_Variable_8
c 27 Tseitin_Variable_9
c 28 Tseitin_Variable_10
c 29 Tseitin_Variable_11
c 30 Tseitin_Variable_12
c 31 Tseitin_Variable_13
c 32 Tseitin_Variable_14
c 33 Tseitin_Variable_15
c 34 Tseitin_Variable_16
c 35 Tseitin_Variable_17
c 36 Tseitin_Variable_18
c 37 Tseitin_Variable_19
p cnf 37 97
2 -3 0
3 -2 0
5 -6 0
6 -5 0
8 -9 0
21 -10 0
21 -11 0
12 21 0
10 11 -12 -21 0
21 0
-15 0
-18 0
4 -7 -22 0
7 -4 -22 0
22 -4 -7 0
4 7 22 0
10 23 0
1 22 23 0
1 -10 -23 0
-10 -22 -23 0
2 24 0
-22 24 0
-2 22 -24 0
4 25 0
7 25 0
-4 -7 -25 0
5 8 25 -26 0
5 -8 -25 -26 0
-5 8 -25 -26 0
-5 -8 25 -26 0
26 -5 -8 -25 0
-5 8 25 26 0
5 -8 25 26 0
5 8 -25 26 0
1 27 0
-26 27 0
1 26 -27 0
-24 27 -28 0
24 -27 -28 0
-24 -27 28 0
24 27 28 0
-11 -28 -29 0
-11 23 -29 0
23 -28 -29 0
11 28 29 0
11 -23 29 0
-23 28 29 0
-27 30 0
-24 30 0
24 27 -30 0
2 31 0
-26 31 0
-2 26 -31 0
5 8 -32 0
5 -25 -32 0
8 -25 -32 0
32 -5 -8 0
-5 25 32 0
-8 25 32 0
6 -9 32 -33 0
6 9 -32 -33 0
-6 -9 -32 -33 0
-6 9 32 -33 0
-6 9 -32 33 0
-6 -9 32 33 0
6 9 32 33 0
6 -9 -32 33 0
1 34 0
-33 34 0
1 33 -34 0
-31 34 -35 0
31 -34 -35 0
-31 -34 35 0
31 34 35 0
3 36 0
-22 36 0
-3 22 -36 0
-30 35 36 -37 0
30 -35 36 -37 0
30 35 -36 -37 0
-30 -35 -36 -37 0
30 -35 -36 37 0
-30 35 -36 37 0
-30 -35 36 37 0
30 35 36 37 0
12 -37 0
12 29 0
29 -37 0
-2 0
13 0
14 0
16 0
-20 0
17 0
19 0
-3 0
1 0